************************************************************************
file with basedata            : md354_.bas
initial value random generator: 1183454403
************************************************************************
projects                      :  1
jobs (incl. supersource/sink ):  22
horizon                       :  157
RESOURCES
  - renewable                 :  2   R
  - nonrenewable              :  2   N
  - doubly constrained        :  0   D
************************************************************************
PROJECT INFORMATION:
pronr.  #jobs rel.date duedate tardcost  MPM-Time
    1     20      0       28        9       28
************************************************************************
PRECEDENCE RELATIONS:
jobnr.    #modes  #successors   successors
   1        1          3           2   3   4
   2        3          2          19  21
   3        3          2           5  12
   4        3          3           6  12  13
   5        3          2           7  13
   6        3          3           7   8  16
   7        3          2           9  14
   8        3          3           9  10  20
   9        3          2          15  18
  10        3          2          11  15
  11        3          2          14  17
  12        3          2          16  19
  13        3          3          15  16  17
  14        3          1          21
  15        3          1          19
  16        3          2          18  20
  17        3          1          18
  18        3          1          21
  19        3          1          22
  20        3          1          22
  21        3          1          22
  22        1          0        
************************************************************************
REQUESTS/DURATIONS:
jobnr. mode duration  R 1  R 2  N 1  N 2
------------------------------------------------------------------------
  1      1     0       0    0    0    0
  2      1     2       3    0    7    6
         2     3       2    0    7    5
         3     5       0    8    4    3
  3      1     5       0    8    9    9
         2     6       6    0    7    5
         3     6       0    8    4    5
  4      1     1       0    9    4    2
         2     4       0    5    4    1
         3     7       6    0    4    1
  5      1     3      10    0    3    9
         2     4      10    0    2    9
         3     7       9    0    2    9
  6      1     3       5    0    9   10
         2     4       5    0    8    9
         3    10       0    4    7    8
  7      1     2       3    0    8    8
         2     4       0    6    6    7
         3     6       0    2    6    7
  8      1     1       0   10   10    4
         2     8       3    0    9    4
         3    10       2    0    8    4
  9      1     1       7    0    7    6
         2     2       0    2    4    5
         3     7       5    0    2    2
 10      1     4       8    0    7   10
         2     5       4    0    3    7
         3     9       0    7    2    4
 11      1     3       0    7    5    4
         2    10       0    5    1    1
         3    10       7    0    4    3
 12      1     6       6    0    5    8
         2     7       5    0    4    7
         3    10       0    2    4    5
 13      1     5       4    0    7    7
         2     6       2    0    6    5
         3     8       1    0    5    5
 14      1     1       0    8    8    6
         2     5       0    3    6    5
         3     8       7    0    3    2
 15      1     2       3    0    6    7
         2     2       0    4    5    8
         3     4       3    0    1    5
 16      1     7       4    0    4    2
         2     9       4    0    4    1
         3    10       0    8    1    1
 17      1     7       0    3    8    9
         2     8       6    0    6    9
         3    10       0    1    3    9
 18      1     3       9    0    7    5
         2     5       0    2    6    4
         3     6       7    0    2    4
 19      1     1       7    0    1    6
         2     5       0    5    1    5
         3     5       7    0    1    5
 20      1     1       5    0    8    8
         2     8       4    0    7    4
         3     9       3    0    5    2
 21      1     5       5    0    4    3
         2     8       0   10    4    2
         3    10       3    0    4    2
 22      1     0       0    0    0    0
************************************************************************
RESOURCEAVAILABILITIES:
  R 1  R 2  N 1  N 2
   15   13   84   96
************************************************************************
MAXIMAL LAGS:
from  to  type  delay
    1   12   ES      0
    1    2   ES      0
    2   12   ES      0
    1    3   ES      0
    3   12   ES      0
    1    4   ES      0
    4   12   ES      0
    1    5   ES      0
    5   12   ES      0
    1    6   ES      0
    6   12   ES      0
    1    7   ES      0
    7   12   ES      0
    1    8   ES      0
    8   12   ES      0
    1    9   ES      0
    9   12   ES      0
    1   10   ES      0
   10   12   ES      0
    1   11   ES      0
   11   12   ES      0
    1   12   ES      0
    2   19   SS     -6
    2   19   SE     -3
    2   19   ES     -8
    2   19   EE    -11
    2   21   SS     -5
    2   21   SE     -9
    2   21   ES      6
    2   21   EE     11
    3    5   SS      2
    3    5   SE      9
    3    5   ES      2
    3    5   EE      3
    4    6   SS     -3
    4    6   SE      5
    4    6   ES      1
    4    6   EE      2
    4   13   SS     -1
    4   13   SE      7
    4   13   ES     -1
    4   13   EE     -9
    5    7   SS      9
    5    7   SE     -3
    5    7   ES    -10
    5    7   EE      4
    5   13   SS      1
    5   13   SE     11
    5   13   ES     -4
    5   13   EE      9
    6    7   SS      4
    6    7   SE     11
    6    7   ES     -7
    6    7   EE     -6
    6    8   SS    -12
    6    8   SE      4
    6    8   ES      4
    6    8   EE     12
    6   16   SS     11
    6   16   SE     -8
    6   16   ES      7
    6   16   EE     -2
    7    9   SS      8
    7    9   SE      4
    9    7   SE      0
    7    9   ES      0
    7    9   EE     10
    7   14   SS      4
    7   14   SE     -4
    7   14   ES     -9
    7   14   EE      6
    8    9   SS      1
    8    9   SE     -7
    8    9   ES     -5
    8    9   EE      8
    8   10   SS     12
    8   10   SE     -5
    8   10   ES     -7
    8   10   EE      1
    8   20   SS    -12
    8   20   SE     11
    8   20   ES      8
    8   20   EE     -1
    9   15   SS     11
    9   15   SE      5
    9   15   ES      0
    9   15   EE     10
    9   18   SS      7
    9   18   SE     12
    9   18   ES     -4
    9   18   EE     -7
   10   11   SS      2
   10   11   SE      1
   10   11   ES      3
   10   11   EE     -3
   10   15   SS      4
   10   15   SE     -6
   10   15   ES     -9
   10   15   EE      2
   11   14   SS     -6
   11   14   SE     10
   11   14   ES    -12
   11   14   EE      0
   11   17   SS      0
   11   17   SE     -7
   11   17   ES      6
   11   17   EE     -6
   12   16   SS      9
   12   16   SE      8
   12   16   ES      9
   12   16   EE    -10
   12   19   SS     -1
   12   19   SE    -10
   12   19   ES      4
   12   19   EE     12
   13   15   SS    -10
   13   15   SE      2
   13   15   ES      5
   13   15   EE      4
   13   16   SS     -8
   13   16   SE     -3
   13   16   ES     12
   13   16   EE     -8
   13   17   SS      0
   13   17   SE     -1
   13   17   ES     -2
   13   17   EE      6
   14   21   SS     -3
   14   21   SE      1
   14   21   ES      7
   14   21   EE      5
   15   19   SS      6
   15   19   SE    -12
   15   19   ES      1
   15   19   EE     -8
   16   18   SS     -5
   16   18   SE     -8
   16   18   ES      2
   16   18   EE     11
   16   20   SS     -8
   16   20   SE     -5
   16   20   ES      8
   16   20   EE      3
   17   18   SS     -9
   17   18   SE      2
   17   18   ES      7
   17   18   EE      4
   18   21   SS      6
   18   21   SE    -12
   18   21   ES     -8
   18   21   EE     -7
   19   22   SS     -5
   19   22   SE      3
   19   22   ES      9
   19   22   EE      6
   20   22   SS    -11
   20   22   SE    -11
   20   22   ES     10
   20   22   EE     12
   21   22   SS      1
   21   22   SE     -2
   21   22   ES     -4
   21   22   EE     10
************************************************************************
